NAME: random-96-32595
TYPE: TSP
COMMENT: size=96 seed=32595
DIMENSION: 194
EDGE_WEIGHT_TYPE: EUC_2D
NODE_COORD_SECTION
+0 165 466
-0 165 466
+1 195 848
-1 829 241
+2 958 353
-2 300 465
+3 745 468
-3 191 830
+4 793 5
-4 241 974
+5 556 460
-5 396 846
+6 940 910
-6 846 252
+7 847 140
-7 578 49
+8 202 956
-8 126 29
+9 365 870
-9 111 19
+10 721 18
-10 750 835
+11 883 532
-11 224 606
+12 894 487
-12 594 598
+13 10 560
-13 90 281
+14 654 47
-14 505 107
+15 501 2
-15 939 774
+16 722 188
-16 237 581
+17 536 394
-17 270 608
+18 768 840
-18 926 44
+19 348 16
-19 688 767
+20 71 288
-20 756 415
+21 515 232
-21 416 712
+22 26 249
-22 660 537
+23 148 480
-23 691 392
+24 163 952
-24 244 947
+25 184 318
-25 678 296
+26 45 459
-26 677 396
+27 190 71
-27 422 115
+28 103 774
-28 23 748
+29 561 107
-29 95 743
+30 345 765
-30 671 319
+31 253 968
-31 445 457
+32 858 940
-32 73 484
+33 490 364
-33 340 356
+34 542 864
-34 312 128
+35 652 218
-35 941 552
+36 170 69
-36 366 441
+37 279 389
-37 465 388
+38 296 188
-38 95 68
+39 845 331
-39 961 98
+40 719 807
-40 952 422
+41 782 600
-41 953 217
+42 469 752
-42 898 481
+43 397 68
-43 728 574
+44 794 864
-44 363 985
+45 451 41
-45 391 256
+46 685 723
-46 423 553
+47 341 727
-47 760 283
+48 182 169
-48 383 28
+49 167 817
-49 612 433
+50 501 989
-50 838 97
+51 431 715
-51 146 386
+52 18 950
-52 729 28
+53 954 408
-53 439 623
+54 707 552
-54 923 441
+55 965 643
-55 31 492
+56 27 966
-56 16 488
+57 732 676
-57 559 730
+58 267 41
-58 912 999
+59 990 839
-59 558 130
+60 996 921
-60 92 146
+61 391 272
-61 18 378
+62 305 362
-62 887 494
+63 831 786
-63 604 250
+64 270 191
-64 515 169
+65 76 8
-65 948 492
+66 161 245
-66 540 580
+67 141 844
-67 970 780
+68 571 895
-68 613 289
+69 873 30
-69 60 438
+70 386 44
-70 586 159
+71 642 149
-71 851 556
+72 827 950
-72 355 528
+73 988 231
-73 707 301
+74 238 454
-74 633 185
+75 517 606
-75 369 808
+76 167 974
-76 997 245
+77 803 241
-77 40 379
+78 477 965
-78 895 559
+79 101 355
-79 517 97
+80 629 465
-80 846 545
+81 483 874
-81 819 872
+82 203 39
-82 363 86
+83 745 325
-83 393 273
+84 489 350
-84 428 893
+85 888 823
-85 328 914
+86 694 892
-86 648 302
+87 618 386
-87 403 98
+88 76 420
-88 345 116
+89 288 793
-89 676 45
+90 222 601
-90 376 406
+91 58 66
-91 35 562
+92 851 962
-92 648 100
+93 509 882
-93 877 284
+94 633 246
-94 632 393
+95 542 60
-95 545 316
+96 637 159
-96 21 997
PRECEDENCE_SECTION
+0 -0
+1 -1
+2 -2
+3 -3
+4 -4
+5 -5
+6 -6
+7 -7
+8 -8
+9 -9
+10 -10
+11 -11
+12 -12
+13 -13
+14 -14
+15 -15
+16 -16
+17 -17
+18 -18
+19 -19
+20 -20
+21 -21
+22 -22
+23 -23
+24 -24
+25 -25
+26 -26
+27 -27
+28 -28
+29 -29
+30 -30
+31 -31
+32 -32
+33 -33
+34 -34
+35 -35
+36 -36
+37 -37
+38 -38
+39 -39
+40 -40
+41 -41
+42 -42
+43 -43
+44 -44
+45 -45
+46 -46
+47 -47
+48 -48
+49 -49
+50 -50
+51 -51
+52 -52
+53 -53
+54 -54
+55 -55
+56 -56
+57 -57
+58 -58
+59 -59
+60 -60
+61 -61
+62 -62
+63 -63
+64 -64
+65 -65
+66 -66
+67 -67
+68 -68
+69 -69
+70 -70
+71 -71
+72 -72
+73 -73
+74 -74
+75 -75
+76 -76
+77 -77
+78 -78
+79 -79
+80 -80
+81 -81
+82 -82
+83 -83
+84 -84
+85 -85
+86 -86
+87 -87
+88 -88
+89 -89
+90 -90
+91 -91
+92 -92
+93 -93
+94 -94
+95 -95
+96 -96
EOF
